unsat
(define-fun SC ((s (_ BitVec 4)) (t (_ BitVec 4))) Bool (= t (bvlshr (bvshl t s) s)))
0.97user 0.03system 0:01.01elapsed 99%CPU (0avgtext+0avgdata 41404maxresident)k
0inputs+8outputs (0major+4994minor)pagefaults 0swaps
